p tw 225 47251 2 
1 3 
1 4 
1 5 
1 6 
1 7 
1 8 
1 9 
1 10 
1 11 
1 12 
1 13 
1 14 
1 15 
1 16 
1 19 
1 31 
1 44 
1 46 
1 53 
1 61 
1 67 
1 76 
1 81 
1 91 
1 95 
1 106 
1 107 
1 121 
1 123 
1 136 
1 150 
1 151 
1 161 
1 166 
1 174 
1 181 
1 190 
1 196 
1 208 
1 211 
1 222 
2 3 
2 4 
2 5 
2 6 
2 7 
2 8 
2 9 
2 10 
2 11 
2 12 
2 13 
2 14 
2 15 
2 17 
2 22 
2 32 
2 38 
2 47 
2 50 
2 62 
2 64 
2 77 
2 78 
2 91 
2 92 
2 107 
2 111 
2 122 
2 129 
2 137 
2 146 
2 152 
2 164 
2 167 
2 175 
2 182 
2 192 
2 197 
2 210 
2 212 
2 223 
3 4 
3 5 
3 6 
3 7 
3 8 
3 9 
3 10 
3 11 
3 12 
3 13 
3 14 
3 15 
3 18 
3 30 
3 33 
3 41 
3 48 
3 58 
3 63 
3 72 
3 78 
3 85 
3 93 
3 97 
3 108 
3 113 
3 123 
3 134 
3 136 
3 138 
3 153 
3 156 
3 168 
3 170 
3 183 
3 184 
3 197 
3 198 
3 213 
3 219 
4 5 
4 6 
4 7 
4 8 
4 9 
4 10 
4 11 
4 12 
4 13 
4 14 
4 15 
4 18 
4 19 
4 34 
4 37 
4 46 
4 49 
4 64 
4 75 
4 79 
4 89 
4 94 
4 103 
4 109 
4 117 
4 124 
4 128 
4 139 
4 140 
4 154 
4 159 
4 169 
4 176 
4 182 
4 184 
4 199 
4 201 
4 214 
4 220 
5 6 
5 7 
5 8 
5 9 
5 10 
5 11 
5 12 
5 13 
5 14 
5 15 
5 17 
5 20 
5 31 
5 35 
5 50 
5 60 
5 65 
5 74 
5 80 
5 88 
5 95 
5 102 
5 110 
5 116 
5 125 
5 130 
5 140 
5 144 
5 155 
5 158 
5 170 
5 172 
5 185 
5 186 
5 198 
5 200 
5 214 
5 215 
6 7 
6 8 
6 9 
6 10 
6 11 
6 12 
6 13 
6 14 
6 15 
6 20 
6 21 
6 36 
6 42 
6 51 
6 55 
6 62 
6 66 
6 81 
6 84 
6 96 
6 105 
6 108 
6 111 
6 126 
6 133 
6 141 
6 149 
6 154 
6 156 
6 166 
6 171 
6 186 
6 191 
6 201 
6 203 
6 216 
6 217 
7 8 
7 9 
7 10 
7 11 
7 12 
7 13 
7 14 
7 15 
7 22 
7 25 
7 32 
7 37 
7 52 
7 56 
7 61 
7 67 
7 79 
7 82 
7 97 
7 104 
7 112 
7 118 
7 127 
7 132 
7 142 
7 143 
7 157 
7 165 
7 168 
7 172 
7 187 
7 189 
7 200 
7 202 
7 216 
7 217 
8 9 
8 10 
8 11 
8 12 
8 13 
8 14 
8 15 
8 23 
8 24 
8 33 
8 38 
8 52 
8 53 
8 66 
8 68 
8 80 
8 83 
8 94 
8 98 
8 106 
8 113 
8 128 
8 135 
8 137 
8 143 
8 158 
8 160 
8 173 
8 179 
8 188 
8 193 
8 203 
8 207 
8 218 
8 221 
9 10 
9 11 
9 12 
9 13 
9 14 
9 15 
9 24 
9 29 
9 39 
9 43 
9 54 
9 57 
9 69 
9 71 
9 83 
9 84 
9 92 
9 99 
9 114 
9 120 
9 121 
9 129 
9 141 
9 144 
9 157 
9 159 
9 169 
9 174 
9 183 
9 189 
9 204 
9 205 
9 215 
9 219 
10 11 
10 12 
10 13 
10 14 
10 15 
10 16 
10 25 
10 40 
10 45 
10 55 
10 59 
10 70 
10 73 
10 85 
10 87 
10 100 
10 101 
10 114 
10 115 
10 122 
10 130 
10 142 
10 145 
10 155 
10 160 
10 171 
10 175 
10 188 
10 190 
10 199 
10 205 
10 213 
10 220 
11 12 
11 13 
11 14 
11 15 
11 26 
11 28 
11 34 
11 41 
11 48 
11 56 
11 65 
11 71 
11 76 
11 86 
11 98 
11 101 
11 112 
11 116 
11 126 
11 131 
11 145 
11 146 
11 152 
11 161 
11 176 
11 177 
11 191 
11 194 
11 204 
11 206 
11 221 
11 225 
12 13 
12 14 
12 15 
12 26 
12 27 
12 40 
12 42 
12 54 
12 57 
12 68 
12 72 
12 82 
12 87 
12 96 
12 102 
12 110 
12 117 
12 124 
12 132 
12 138 
12 147 
12 162 
12 163 
12 167 
12 177 
12 192 
12 195 
12 207 
12 209 
12 211 
12 222 
13 14 
13 15 
13 27 
13 28 
13 36 
13 43 
13 47 
13 58 
13 69 
13 73 
13 86 
13 88 
13 100 
13 103 
13 118 
13 119 
13 127 
13 133 
13 139 
13 148 
13 153 
13 163 
13 178 
13 180 
13 185 
13 193 
13 196 
13 208 
13 218 
13 223 
14 15 
14 23 
14 29 
14 39 
14 44 
14 51 
14 59 
14 70 
14 74 
14 89 
14 90 
14 93 
14 104 
14 109 
14 119 
14 125 
14 134 
14 147 
14 149 
14 151 
14 164 
14 178 
14 179 
14 187 
14 194 
14 206 
14 209 
14 212 
14 224 
15 21 
15 30 
15 35 
15 45 
15 49 
15 60 
15 63 
15 75 
15 77 
15 90 
15 99 
15 105 
15 115 
15 120 
15 131 
15 135 
15 148 
15 150 
15 162 
15 165 
15 173 
15 180 
15 181 
15 195 
15 202 
15 210 
15 224 
15 225 
16 17 
16 18 
16 19 
16 20 
16 21 
16 22 
16 23 
16 24 
16 25 
16 26 
16 27 
16 28 
16 29 
16 30 
16 31 
16 45 
16 46 
16 59 
16 61 
16 73 
16 76 
16 87 
16 91 
16 101 
16 106 
16 114 
16 121 
16 122 
16 136 
16 142 
16 151 
16 155 
16 166 
16 171 
16 181 
16 188 
16 196 
16 199 
16 211 
16 213 
17 18 
17 19 
17 20 
17 21 
17 22 
17 23 
17 24 
17 25 
17 26 
17 27 
17 28 
17 29 
17 30 
17 31 
17 32 
17 47 
17 60 
17 62 
17 74 
17 77 
17 88 
17 92 
17 102 
17 107 
17 116 
17 122 
17 130 
17 137 
17 144 
17 152 
17 158 
17 167 
17 172 
17 182 
17 186 
17 197 
17 198 
17 212 
17 214 
18 19 
18 20 
18 21 
18 22 
18 23 
18 24 
18 25 
18 26 
18 27 
18 28 
18 29 
18 30 
18 33 
18 37 
18 46 
18 48 
18 63 
18 75 
18 78 
18 89 
18 93 
18 103 
18 108 
18 117 
18 123 
18 128 
18 138 
18 140 
18 153 
18 159 
18 168 
18 176 
18 182 
18 183 
18 198 
18 201 
18 213 
18 220 
19 20 
19 21 
19 22 
19 23 
19 24 
19 25 
19 26 
19 27 
19 28 
19 29 
19 30 
19 34 
19 44 
19 49 
19 53 
19 64 
19 67 
19 79 
19 81 
19 94 
19 95 
19 107 
19 109 
19 123 
19 124 
19 139 
19 150 
19 154 
19 161 
19 169 
19 174 
19 184 
19 190 
19 199 
19 208 
19 214 
19 222 
20 21 
20 22 
20 23 
20 24 
20 25 
20 26 
20 27 
20 28 
20 29 
20 30 
20 35 
20 42 
20 50 
20 55 
20 62 
20 65 
20 80 
20 84 
20 95 
20 105 
20 108 
20 110 
20 125 
20 133 
20 140 
20 149 
20 154 
20 155 
20 166 
20 170 
20 185 
20 191 
20 200 
20 203 
20 215 
20 217 
21 22 
21 23 
21 24 
21 25 
21 26 
21 27 
21 28 
21 29 
21 30 
21 35 
21 36 
21 49 
21 51 
21 63 
21 66 
21 77 
21 81 
21 96 
21 99 
21 111 
21 115 
21 126 
21 131 
21 141 
21 148 
21 156 
21 162 
21 171 
21 173 
21 181 
21 186 
21 201 
21 202 
21 216 
21 224 
22 23 
22 24 
22 25 
22 26 
22 27 
22 28 
22 29 
22 30 
22 37 
22 38 
22 50 
22 52 
22 64 
22 67 
22 78 
22 82 
22 91 
22 97 
22 111 
22 112 
22 127 
22 129 
22 142 
22 146 
22 157 
22 164 
22 172 
22 175 
22 187 
22 192 
22 202 
22 210 
22 217 
22 223 
23 24 
23 25 
23 26 
23 27 
23 28 
23 29 
23 30 
23 38 
23 39 
23 51 
23 53 
23 68 
23 70 
23 83 
23 90 
23 93 
23 98 
23 109 
23 113 
23 125 
23 128 
23 143 
23 147 
23 151 
23 158 
23 173 
23 178 
23 187 
23 188 
23 203 
23 206 
23 212 
23 218 
24 25 
24 26 
24 27 
24 28 
24 29 
24 30 
24 33 
24 39 
24 52 
24 54 
24 66 
24 69 
24 80 
24 84 
24 94 
24 99 
24 106 
24 114 
24 129 
24 135 
24 137 
24 144 
24 159 
24 160 
24 174 
24 179 
24 189 
24 193 
24 204 
24 207 
24 219 
24 221 
25 26 
25 27 
25 28 
25 29 
25 30 
25 32 
25 40 
25 55 
25 56 
25 61 
25 70 
25 79 
25 85 
25 100 
25 104 
25 115 
25 118 
25 130 
25 132 
25 143 
25 145 
25 160 
25 165 
25 168 
25 175 
25 189 
25 190 
25 200 
25 205 
25 216 
25 220 
26 27 
26 28 
26 29 
26 30 
26 40 
26 41 
26 54 
26 56 
26 68 
26 71 
26 82 
26 86 
26 96 
26 101 
26 110 
26 116 
26 124 
26 131 
26 138 
26 146 
26 161 
26 163 
26 167 
26 176 
26 191 
26 195 
26 206 
26 209 
26 211 
26 221 
27 28 
27 29 
27 30 
27 36 
27 42 
27 47 
27 57 
27 69 
27 72 
27 86 
27 87 
27 100 
27 102 
27 117 
27 119 
27 127 
27 132 
27 139 
27 147 
27 153 
27 162 
27 177 
27 180 
27 185 
27 192 
27 196 
27 207 
27 218 
27 222 
28 29 
28 30 
28 34 
28 43 
28 48 
28 58 
28 65 
28 73 
28 76 
28 88 
28 98 
28 103 
28 112 
28 118 
28 126 
28 133 
28 145 
28 148 
28 152 
28 163 
28 177 
28 178 
28 193 
28 194 
28 204 
28 208 
28 223 
28 225 
29 30 
29 43 
29 44 
29 57 
29 59 
29 71 
29 74 
29 83 
29 89 
29 92 
29 104 
29 119 
29 120 
29 121 
29 134 
29 141 
29 149 
29 157 
29 164 
29 169 
29 179 
29 183 
29 194 
29 205 
29 209 
29 215 
29 224 
30 41 
30 45 
30 58 
30 60 
30 72 
30 75 
30 85 
30 90 
30 97 
30 105 
30 113 
30 120 
30 134 
30 135 
30 136 
30 150 
30 156 
30 165 
30 170 
30 180 
30 184 
30 195 
30 197 
30 210 
30 219 
30 225 
31 32 
31 33 
31 34 
31 35 
31 36 
31 37 
31 38 
31 39 
31 40 
31 41 
31 42 
31 43 
31 44 
31 45 
31 46 
31 60 
31 61 
31 74 
31 76 
31 88 
31 91 
31 102 
31 106 
31 116 
31 121 
31 130 
31 136 
31 144 
31 151 
31 158 
31 166 
31 172 
31 181 
31 186 
31 196 
31 198 
31 211 
31 214 
32 33 
32 34 
32 35 
32 36 
32 37 
32 38 
32 39 
32 40 
32 41 
32 42 
32 43 
32 44 
32 45 
32 47 
32 56 
32 61 
32 62 
32 77 
32 79 
32 92 
32 104 
32 107 
32 118 
32 122 
32 132 
32 137 
32 143 
32 152 
32 165 
32 167 
32 168 
32 182 
32 189 
32 197 
32 200 
32 212 
32 216 
33 34 
33 35 
33 36 
33 37 
33 38 
33 39 
33 40 
33 41 
33 42 
33 43 
33 44 
33 45 
33 48 
33 52 
33 63 
33 66 
33 78 
33 80 
33 93 
33 94 
33 106 
33 108 
33 123 
33 135 
33 137 
33 138 
33 153 
33 160 
33 168 
33 179 
33 183 
33 193 
33 198 
33 207 
33 213 
33 221 
34 35 
34 36 
34 37 
34 38 
34 39 
34 40 
34 41 
34 42 
34 43 
34 44 
34 45 
34 48 
34 49 
34 64 
34 65 
34 76 
34 79 
34 94 
34 98 
34 109 
34 112 
34 124 
34 126 
34 139 
34 145 
34 152 
34 154 
34 169 
34 177 
34 184 
34 194 
34 199 
34 204 
34 214 
34 225 
35 36 
35 37 
35 38 
35 39 
35 40 
35 41 
35 42 
35 43 
35 44 
35 45 
35 49 
35 50 
35 63 
35 65 
35 77 
35 80 
35 95 
35 99 
35 110 
35 115 
35 125 
35 131 
35 140 
35 148 
35 155 
35 162 
35 170 
35 173 
35 181 
35 185 
35 200 
35 202 
35 215 
35 224 
36 37 
36 38 
36 39 
36 40 
36 41 
36 42 
36 43 
36 44 
36 45 
36 47 
36 51 
36 66 
36 69 
36 81 
36 86 
36 96 
36 100 
36 111 
36 119 
36 126 
36 127 
36 139 
36 141 
36 153 
36 156 
36 171 
36 180 
36 185 
36 186 
36 196 
36 201 
36 216 
36 218 
37 38 
37 39 
37 40 
37 41 
37 42 
37 43 
37 44 
37 45 
37 46 
37 52 
37 67 
37 75 
37 82 
37 89 
37 97 
37 103 
37 112 
37 117 
37 127 
37 128 
37 140 
37 142 
37 157 
37 159 
37 172 
37 176 
37 182 
37 187 
37 201 
37 202 
37 217 
37 220 
38 39 
38 40 
38 41 
38 42 
38 43 
38 44 
38 45 
38 50 
38 53 
38 64 
38 68 
38 78 
38 83 
38 91 
38 98 
38 111 
38 113 
38 128 
38 129 
38 143 
38 146 
38 158 
38 164 
38 173 
38 175 
38 188 
38 192 
38 203 
38 210 
38 218 
38 223 
39 40 
39 41 
39 42 
39 43 
39 44 
39 45 
39 51 
39 54 
39 69 
39 70 
39 84 
39 90 
39 93 
39 99 
39 109 
39 114 
39 125 
39 129 
39 144 
39 147 
39 151 
39 159 
39 174 
39 178 
39 187 
39 189 
39 204 
39 206 
39 212 
39 219 
40 41 
40 42 
40 43 
40 44 
40 45 
40 54 
40 55 
40 68 
40 70 
40 82 
40 85 
40 96 
40 100 
40 110 
40 115 
40 124 
40 130 
40 138 
40 145 
40 160 
40 163 
40 167 
40 175 
40 190 
40 195 
40 205 
40 209 
40 211 
40 220 
41 42 
41 43 
41 44 
41 45 
41 56 
41 58 
41 71 
41 72 
41 85 
41 86 
41 97 
41 101 
41 113 
41 116 
41 131 
41 134 
41 136 
41 146 
41 156 
41 161 
41 170 
41 176 
41 184 
41 191 
41 197 
41 206 
41 219 
41 221 
42 43 
42 44 
42 45 
42 55 
42 57 
42 62 
42 72 
42 84 
42 87 
42 102 
42 105 
42 108 
42 117 
42 132 
42 133 
42 147 
42 149 
42 154 
42 162 
42 166 
42 177 
42 191 
42 192 
42 203 
42 207 
42 217 
42 222 
43 44 
43 45 
43 57 
43 58 
43 71 
43 73 
43 83 
43 88 
43 92 
43 103 
43 118 
43 120 
43 121 
43 133 
43 141 
43 148 
43 157 
43 163 
43 169 
43 178 
43 183 
43 193 
43 205 
43 208 
43 215 
43 223 
44 45 
44 53 
44 59 
44 67 
44 74 
44 81 
44 89 
44 95 
44 104 
44 107 
44 119 
44 123 
44 134 
44 149 
44 150 
44 161 
44 164 
44 174 
44 179 
44 190 
44 194 
44 208 
44 209 
44 222 
44 224 
45 59 
45 60 
45 73 
45 75 
45 87 
45 90 
45 101 
45 105 
45 114 
45 120 
45 122 
45 135 
45 142 
45 150 
45 155 
45 165 
45 171 
45 180 
45 188 
45 195 
45 199 
45 210 
45 213 
45 225 
46 47 
46 48 
46 49 
46 50 
46 51 
46 52 
46 53 
46 54 
46 55 
46 56 
46 57 
46 58 
46 59 
46 60 
46 61 
46 75 
46 76 
46 89 
46 91 
46 103 
46 106 
46 117 
46 121 
46 128 
46 136 
46 140 
46 151 
46 159 
46 166 
46 176 
46 181 
46 182 
46 196 
46 201 
46 211 
46 220 
47 48 
47 49 
47 50 
47 51 
47 52 
47 53 
47 54 
47 55 
47 56 
47 57 
47 58 
47 59 
47 60 
47 62 
47 69 
47 77 
47 86 
47 92 
47 100 
47 107 
47 119 
47 122 
47 127 
47 137 
47 139 
47 152 
47 153 
47 167 
47 180 
47 182 
47 185 
47 196 
47 197 
47 212 
47 218 
48 49 
48 50 
48 51 
48 52 
48 53 
48 54 
48 55 
48 56 
48 57 
48 58 
48 59 
48 60 
48 63 
48 65 
48 76 
48 78 
48 93 
48 98 
48 108 
48 112 
48 123 
48 126 
48 138 
48 145 
48 152 
48 153 
48 168 
48 177 
48 183 
48 194 
48 198 
48 204 
48 213 
48 225 
49 50 
49 51 
49 52 
49 53 
49 54 
49 55 
49 56 
49 57 
49 58 
49 59 
49 60 
49 63 
49 64 
49 77 
49 79 
49 94 
49 99 
49 109 
49 115 
49 124 
49 131 
49 139 
49 148 
49 154 
49 162 
49 169 
49 173 
49 181 
49 184 
49 199 
49 202 
49 214 
49 224 
50 51 
50 52 
50 53 
50 54 
50 55 
50 56 
50 57 
50 58 
50 59 
50 60 
50 64 
50 65 
50 78 
50 80 
50 91 
50 95 
50 110 
50 111 
50 125 
50 129 
50 140 
50 146 
50 155 
50 164 
50 170 
50 175 
50 185 
50 192 
50 200 
50 210 
50 215 
50 223 
51 52 
51 53 
51 54 
51 55 
51 56 
51 57 
51 58 
51 59 
51 60 
51 66 
51 70 
51 81 
51 90 
51 93 
51 96 
51 109 
51 111 
51 125 
51 126 
51 141 
51 147 
51 151 
51 156 
51 171 
51 178 
51 186 
51 187 
51 201 
51 206 
51 212 
51 216 
52 53 
52 54 
52 55 
52 56 
52 57 
52 58 
52 59 
52 60 
52 66 
52 67 
52 80 
52 82 
52 94 
52 97 
52 106 
52 112 
52 127 
52 135 
52 137 
52 142 
52 157 
52 160 
52 172 
52 179 
52 187 
52 193 
52 202 
52 207 
52 217 
52 221 
53 54 
53 55 
53 56 
53 57 
53 58 
53 59 
53 60 
53 67 
53 68 
53 81 
53 83 
53 95 
53 98 
53 107 
53 113 
53 123 
53 128 
53 143 
53 150 
53 158 
53 161 
53 173 
53 174 
53 188 
53 190 
53 203 
53 208 
53 218 
53 222 
54 55 
54 56 
54 57 
54 58 
54 59 
54 60 
54 68 
54 69 
54 82 
54 84 
54 96 
54 99 
54 110 
54 114 
54 124 
54 129 
54 138 
54 144 
54 159 
54 163 
54 167 
54 174 
54 189 
54 195 
54 204 
54 209 
54 211 
54 219 
55 56 
55 57 
55 58 
55 59 
55 60 
55 62 
55 70 
55 84 
55 85 
55 100 
55 105 
55 108 
55 115 
55 130 
55 133 
55 145 
55 149 
55 154 
55 160 
55 166 
55 175 
55 190 
55 191 
55 203 
55 205 
55 217 
55 220 
56 57 
56 58 
56 59 
56 60 
56 61 
56 71 
56 79 
56 86 
56 101 
56 104 
56 116 
56 118 
56 131 
56 132 
56 143 
56 146 
56 161 
56 165 
56 168 
56 176 
56 189 
56 191 
56 200 
56 206 
56 216 
56 221 
57 58 
57 59 
57 60 
57 71 
57 72 
57 83 
57 87 
57 92 
57 102 
57 117 
57 120 
57 121 
57 132 
57 141 
57 147 
57 157 
57 162 
57 169 
57 177 
57 183 
57 192 
57 205 
57 207 
57 215 
57 222 
58 59 
58 60 
58 72 
58 73 
58 85 
58 88 
58 97 
58 103 
58 113 
58 118 
58 133 
58 134 
58 136 
58 148 
58 156 
58 163 
58 170 
58 178 
58 184 
58 193 
58 197 
58 208 
58 219 
58 223 
59 60 
59 73 
59 74 
59 87 
59 89 
59 101 
59 104 
59 114 
59 119 
59 122 
59 134 
59 142 
59 149 
59 155 
59 164 
59 171 
59 179 
59 188 
59 194 
59 199 
59 209 
59 213 
59 224 
60 74 
60 75 
60 88 
60 90 
60 102 
60 105 
60 116 
60 120 
60 130 
60 135 
60 144 
60 150 
60 158 
60 165 
60 172 
60 180 
60 186 
60 195 
60 198 
60 210 
60 214 
60 225 
61 62 
61 63 
61 64 
61 65 
61 66 
61 67 
61 68 
61 69 
61 70 
61 71 
61 72 
61 73 
61 74 
61 75 
61 76 
61 79 
61 91 
61 104 
61 106 
61 118 
61 121 
61 132 
61 136 
61 143 
61 151 
61 165 
61 166 
61 168 
61 181 
61 189 
61 196 
61 200 
61 211 
61 216 
62 63 
62 64 
62 65 
62 66 
62 67 
62 68 
62 69 
62 70 
62 71 
62 72 
62 73 
62 74 
62 75 
62 77 
62 84 
62 92 
62 105 
62 107 
62 108 
62 122 
62 133 
62 137 
62 149 
62 152 
62 154 
62 166 
62 167 
62 182 
62 191 
62 197 
62 203 
62 212 
62 217 
63 64 
63 65 
63 66 
63 67 
63 68 
63 69 
63 70 
63 71 
63 72 
63 73 
63 74 
63 75 
63 77 
63 78 
63 93 
63 99 
63 108 
63 115 
63 123 
63 131 
63 138 
63 148 
63 153 
63 162 
63 168 
63 173 
63 181 
63 183 
63 198 
63 202 
63 213 
63 224 
64 65 
64 66 
64 67 
64 68 
64 69 
64 70 
64 71 
64 72 
64 73 
64 74 
64 75 
64 78 
64 79 
64 91 
64 94 
64 109 
64 111 
64 124 
64 129 
64 139 
64 146 
64 154 
64 164 
64 169 
64 175 
64 184 
64 192 
64 199 
64 210 
64 214 
64 223 
65 66 
65 67 
65 68 
65 69 
65 70 
65 71 
65 72 
65 73 
65 74 
65 75 
65 76 
65 80 
65 95 
65 98 
65 110 
65 112 
65 125 
65 126 
65 140 
65 145 
65 152 
65 155 
65 170 
65 177 
65 185 
65 194 
65 200 
65 204 
65 215 
65 225 
66 67 
66 68 
66 69 
66 70 
66 71 
66 72 
66 73 
66 74 
66 75 
66 80 
66 81 
66 94 
66 96 
66 106 
66 111 
66 126 
66 135 
66 137 
66 141 
66 156 
66 160 
66 171 
66 179 
66 186 
66 193 
66 201 
66 207 
66 216 
66 221 
67 68 
67 69 
67 70 
67 71 
67 72 
67 73 
67 74 
67 75 
67 81 
67 82 
67 95 
67 97 
67 107 
67 112 
67 123 
67 127 
67 142 
67 150 
67 157 
67 161 
67 172 
67 174 
67 187 
67 190 
67 202 
67 208 
67 217 
67 222 
68 69 
68 70 
68 71 
68 72 
68 73 
68 74 
68 75 
68 82 
68 83 
68 96 
68 98 
68 110 
68 113 
68 124 
68 128 
68 138 
68 143 
68 158 
68 163 
68 167 
68 173 
68 188 
68 195 
68 203 
68 209 
68 211 
68 218 
69 70 
69 71 
69 72 
69 73 
69 74 
69 75 
69 84 
69 86 
69 99 
69 100 
69 114 
69 119 
69 127 
69 129 
69 139 
69 144 
69 153 
69 159 
69 174 
69 180 
69 185 
69 189 
69 196 
69 204 
69 218 
69 219 
70 71 
70 72 
70 73 
70 74 
70 75 
70 85 
70 90 
70 93 
70 100 
70 109 
70 115 
70 125 
70 130 
70 145 
70 147 
70 151 
70 160 
70 175 
70 178 
70 187 
70 190 
70 205 
70 206 
70 212 
70 220 
71 72 
71 73 
71 74 
71 75 
71 83 
71 86 
71 92 
71 101 
71 116 
71 120 
71 121 
71 131 
71 141 
71 146 
71 157 
71 161 
71 169 
71 176 
71 183 
71 191 
71 205 
71 206 
71 215 
71 221 
72 73 
72 74 
72 75 
72 85 
72 87 
72 97 
72 102 
72 113 
72 117 
72 132 
72 134 
72 136 
72 147 
72 156 
72 162 
72 170 
72 177 
72 184 
72 192 
72 197 
72 207 
72 219 
72 222 
73 74 
73 75 
73 87 
73 88 
73 101 
73 103 
73 114 
73 118 
73 122 
73 133 
73 142 
73 148 
73 155 
73 163 
73 171 
73 178 
73 188 
73 193 
73 199 
73 208 
73 213 
73 223 
74 75 
74 88 
74 89 
74 102 
74 104 
74 116 
74 119 
74 130 
74 134 
74 144 
74 149 
74 158 
74 164 
74 172 
74 179 
74 186 
74 194 
74 198 
74 209 
74 214 
74 224 
75 89 
75 90 
75 103 
75 105 
75 117 
75 120 
75 128 
75 135 
75 140 
75 150 
75 159 
75 165 
75 176 
75 180 
75 182 
75 195 
75 201 
75 210 
75 220 
75 225 
76 77 
76 78 
76 79 
76 80 
76 81 
76 82 
76 83 
76 84 
76 85 
76 86 
76 87 
76 88 
76 89 
76 90 
76 91 
76 98 
76 106 
76 112 
76 121 
76 126 
76 136 
76 145 
76 151 
76 152 
76 166 
76 177 
76 181 
76 194 
76 196 
76 204 
76 211 
76 225 
77 78 
77 79 
77 80 
77 81 
77 82 
77 83 
77 84 
77 85 
77 86 
77 87 
77 88 
77 89 
77 90 
77 92 
77 99 
77 107 
77 115 
77 122 
77 131 
77 137 
77 148 
77 152 
77 162 
77 167 
77 173 
77 181 
77 182 
77 197 
77 202 
77 212 
77 224 
78 79 
78 80 
78 81 
78 82 
78 83 
78 84 
78 85 
78 86 
78 87 
78 88 
78 89 
78 90 
78 91 
78 93 
78 108 
78 111 
78 123 
78 129 
78 138 
78 146 
78 153 
78 164 
78 168 
78 175 
78 183 
78 192 
78 198 
78 210 
78 213 
78 223 
79 80 
79 81 
79 82 
79 83 
79 84 
79 85 
79 86 
79 87 
79 88 
79 89 
79 90 
79 94 
79 104 
79 109 
79 118 
79 124 
79 132 
79 139 
79 143 
79 154 
79 165 
79 168 
79 169 
79 184 
79 189 
79 199 
79 200 
79 214 
79 216 
80 81 
80 82 
80 83 
80 84 
80 85 
80 86 
80 87 
80 88 
80 89 
80 90 
80 94 
80 95 
80 106 
80 110 
80 125 
80 135 
80 137 
80 140 
80 155 
80 160 
80 170 
80 179 
80 185 
80 193 
80 200 
80 207 
80 215 
80 221 
81 82 
81 83 
81 84 
81 85 
81 86 
81 87 
81 88 
81 89 
81 90 
81 95 
81 96 
81 107 
81 111 
81 123 
81 126 
81 141 
81 150 
81 156 
81 161 
81 171 
81 174 
81 186 
81 190 
81 201 
81 208 
81 216 
81 222 
82 83 
82 84 
82 85 
82 86 
82 87 
82 88 
82 89 
82 90 
82 96 
82 97 
82 110 
82 112 
82 124 
82 127 
82 138 
82 142 
82 157 
82 163 
82 167 
82 172 
82 187 
82 195 
82 202 
82 209 
82 211 
82 217 
83 84 
83 85 
83 86 
83 87 
83 88 
83 89 
83 90 
83 92 
83 98 
83 113 
83 120 
83 121 
83 128 
83 141 
83 143 
83 157 
83 158 
83 169 
83 173 
83 183 
83 188 
83 203 
83 205 
83 215 
83 218 
84 85 
84 86 
84 87 
84 88 
84 89 
84 90 
84 99 
84 105 
84 108 
84 114 
84 129 
84 133 
84 144 
84 149 
84 154 
84 159 
84 166 
84 174 
84 189 
84 191 
84 203 
84 204 
84 217 
84 219 
85 86 
85 87 
85 88 
85 89 
85 90 
85 97 
85 100 
85 113 
85 115 
85 130 
85 134 
85 136 
85 145 
85 156 
85 160 
85 170 
85 175 
85 184 
85 190 
85 197 
85 205 
85 219 
85 220 
86 87 
86 88 
86 89 
86 90 
86 100 
86 101 
86 116 
86 119 
86 127 
86 131 
86 139 
86 146 
86 153 
86 161 
86 176 
86 180 
86 185 
86 191 
86 196 
86 206 
86 218 
86 221 
87 88 
87 89 
87 90 
87 101 
87 102 
87 114 
87 117 
87 122 
87 132 
87 142 
87 147 
87 155 
87 162 
87 171 
87 177 
87 188 
87 192 
87 199 
87 207 
87 213 
87 222 
88 89 
88 90 
88 102 
88 103 
88 116 
88 118 
88 130 
88 133 
88 144 
88 148 
88 158 
88 163 
88 172 
88 178 
88 186 
88 193 
88 198 
88 208 
88 214 
88 223 
89 90 
89 103 
89 104 
89 117 
89 119 
89 128 
89 134 
89 140 
89 149 
89 159 
89 164 
89 176 
89 179 
89 182 
89 194 
89 201 
89 209 
89 220 
89 224 
90 93 
90 105 
90 109 
90 120 
90 125 
90 135 
90 147 
90 150 
90 151 
90 165 
90 178 
90 180 
90 187 
90 195 
90 206 
90 210 
90 212 
90 225 
91 92 
91 93 
91 94 
91 95 
91 96 
91 97 
91 98 
91 99 
91 100 
91 101 
91 102 
91 103 
91 104 
91 105 
91 106 
91 111 
91 121 
91 129 
91 136 
91 146 
91 151 
91 164 
91 166 
91 175 
91 181 
91 192 
91 196 
91 210 
91 211 
91 223 
92 93 
92 94 
92 95 
92 96 
92 97 
92 98 
92 99 
92 100 
92 101 
92 102 
92 103 
92 104 
92 105 
92 107 
92 120 
92 121 
92 122 
92 137 
92 141 
92 152 
92 157 
92 167 
92 169 
92 182 
92 183 
92 197 
92 205 
92 212 
92 215 
93 94 
93 95 
93 96 
93 97 
93 98 
93 99 
93 100 
93 101 
93 102 
93 103 
93 104 
93 105 
93 108 
93 109 
93 123 
93 125 
93 138 
93 147 
93 151 
93 153 
93 168 
93 178 
93 183 
93 187 
93 198 
93 206 
93 212 
93 213 
94 95 
94 96 
94 97 
94 98 
94 99 
94 100 
94 101 
94 102 
94 103 
94 104 
94 105 
94 106 
94 109 
94 124 
94 135 
94 137 
94 139 
94 154 
94 160 
94 169 
94 179 
94 184 
94 193 
94 199 
94 207 
94 214 
94 221 
95 96 
95 97 
95 98 
95 99 
95 100 
95 101 
95 102 
95 103 
95 104 
95 105 
95 107 
95 110 
95 123 
95 125 
95 140 
95 150 
95 155 
95 161 
95 170 
95 174 
95 185 
95 190 
95 200 
95 208 
95 215 
95 222 
96 97 
96 98 
96 99 
96 100 
96 101 
96 102 
96 103 
96 104 
96 105 
96 110 
96 111 
96 124 
96 126 
96 138 
96 141 
96 156 
96 163 
96 167 
96 171 
96 186 
96 195 
96 201 
96 209 
96 211 
96 216 
97 98 
97 99 
97 100 
97 101 
97 102 
97 103 
97 104 
97 105 
97 112 
97 113 
97 127 
97 134 
97 136 
97 142 
97 156 
97 157 
97 170 
97 172 
97 184 
97 187 
97 197 
97 202 
97 217 
97 219 
98 99 
98 100 
98 101 
98 102 
98 103 
98 104 
98 105 
98 112 
98 113 
98 126 
98 128 
98 143 
98 145 
98 152 
98 158 
98 173 
98 177 
98 188 
98 194 
98 203 
98 204 
98 218 
98 225 
99 100 
99 101 
99 102 
99 103 
99 104 
99 105 
99 114 
99 115 
99 129 
99 131 
99 144 
99 148 
99 159 
99 162 
99 173 
99 174 
99 181 
99 189 
99 202 
99 204 
99 219 
99 224 
100 101 
100 102 
100 103 
100 104 
100 105 
100 115 
100 119 
100 127 
100 130 
100 139 
100 145 
100 153 
100 160 
100 175 
100 180 
100 185 
100 190 
100 196 
100 205 
100 218 
100 220 
101 102 
101 103 
101 104 
101 105 
101 114 
101 116 
101 122 
101 131 
101 142 
101 146 
101 155 
101 161 
101 171 
101 176 
101 188 
101 191 
101 199 
101 206 
101 213 
101 221 
102 103 
102 104 
102 105 
102 116 
102 117 
102 130 
102 132 
102 144 
102 147 
102 158 
102 162 
102 172 
102 177 
102 186 
102 192 
102 198 
102 207 
102 214 
102 222 
103 104 
103 105 
103 117 
103 118 
103 128 
103 133 
103 140 
103 148 
103 159 
103 163 
103 176 
103 178 
103 182 
103 193 
103 201 
103 208 
103 220 
103 223 
104 105 
104 118 
104 119 
104 132 
104 134 
104 143 
104 149 
104 164 
104 165 
104 168 
104 179 
104 189 
104 194 
104 200 
104 209 
104 216 
104 224 
105 108 
105 120 
105 133 
105 135 
105 149 
105 150 
105 154 
105 165 
105 166 
105 180 
105 191 
105 195 
105 203 
105 210 
105 217 
105 225 
106 107 
106 108 
106 109 
106 110 
106 111 
106 112 
106 113 
106 114 
106 115 
106 116 
106 117 
106 118 
106 119 
106 120 
106 121 
106 135 
106 136 
106 137 
106 151 
106 160 
106 166 
106 179 
106 181 
106 193 
106 196 
106 207 
106 211 
106 221 
107 108 
107 109 
107 110 
107 111 
107 112 
107 113 
107 114 
107 115 
107 116 
107 117 
107 118 
107 119 
107 120 
107 122 
107 123 
107 137 
107 150 
107 152 
107 161 
107 167 
107 174 
107 182 
107 190 
107 197 
107 208 
107 212 
107 222 
108 109 
108 110 
108 111 
108 112 
108 113 
108 114 
108 115 
108 116 
108 117 
108 118 
108 119 
108 120 
108 123 
108 133 
108 138 
108 149 
108 153 
108 154 
108 166 
108 168 
108 183 
108 191 
108 198 
108 203 
108 213 
108 217 
109 110 
109 111 
109 112 
109 113 
109 114 
109 115 
109 116 
109 117 
109 118 
109 119 
109 120 
109 124 
109 125 
109 139 
109 147 
109 151 
109 154 
109 169 
109 178 
109 184 
109 187 
109 199 
109 206 
109 212 
109 214 
110 111 
110 112 
110 113 
110 114 
110 115 
110 116 
110 117 
110 118 
110 119 
110 120 
110 124 
110 125 
110 138 
110 140 
110 155 
110 163 
110 167 
110 170 
110 185 
110 195 
110 200 
110 209 
110 211 
110 215 
111 112 
111 113 
111 114 
111 115 
111 116 
111 117 
111 118 
111 119 
111 120 
111 126 
111 129 
111 141 
111 146 
111 156 
111 164 
111 171 
111 175 
111 186 
111 192 
111 201 
111 210 
111 216 
111 223 
112 113 
112 114 
112 115 
112 116 
112 117 
112 118 
112 119 
112 120 
112 126 
112 127 
112 142 
112 145 
112 152 
112 157 
112 172 
112 177 
112 187 
112 194 
112 202 
112 204 
112 217 
112 225 
113 114 
113 115 
113 116 
113 117 
113 118 
113 119 
113 120 
113 128 
113 134 
113 136 
113 143 
113 156 
113 158 
113 170 
113 173 
113 184 
113 188 
113 197 
113 203 
113 218 
113 219 
114 115 
114 116 
114 117 
114 118 
114 119 
114 120 
114 122 
114 129 
114 142 
114 144 
114 155 
114 159 
114 171 
114 174 
114 188 
114 189 
114 199 
114 204 
114 213 
114 219 
115 116 
115 117 
115 118 
115 119 
115 120 
115 130 
115 131 
115 145 
115 148 
115 160 
115 162 
115 173 
115 175 
115 181 
115 190 
115 202 
115 205 
115 220 
115 224 
116 117 
116 118 
116 119 
116 120 
116 130 
116 131 
116 144 
116 146 
116 158 
116 161 
116 172 
116 176 
116 186 
116 191 
116 198 
116 206 
116 214 
116 221 
117 118 
117 119 
117 120 
117 128 
117 132 
117 140 
117 147 
117 159 
117 162 
117 176 
117 177 
117 182 
117 192 
117 201 
117 207 
117 220 
117 222 
118 119 
118 120 
118 132 
118 133 
118 143 
118 148 
118 163 
118 165 
118 168 
118 178 
118 189 
118 193 
118 200 
118 208 
118 216 
118 223 
119 120 
119 127 
119 134 
119 139 
119 149 
119 153 
119 164 
119 179 
119 180 
119 185 
119 194 
119 196 
119 209 
119 218 
119 224 
120 121 
120 135 
120 141 
120 150 
120 157 
120 165 
120 169 
120 180 
120 183 
120 195 
120 205 
120 210 
120 215 
120 225 
121 122 
121 123 
121 124 
121 125 
121 126 
121 127 
121 128 
121 129 
121 130 
121 131 
121 132 
121 133 
121 134 
121 135 
121 136 
121 141 
121 151 
121 157 
121 166 
121 169 
121 181 
121 183 
121 196 
121 205 
121 211 
121 215 
122 123 
122 124 
122 125 
122 126 
122 127 
122 128 
122 129 
122 130 
122 131 
122 132 
122 133 
122 134 
122 135 
122 137 
122 142 
122 152 
122 155 
122 167 
122 171 
122 182 
122 188 
122 197 
122 199 
122 212 
122 213 
123 124 
123 125 
123 126 
123 127 
123 128 
123 129 
123 130 
123 131 
123 132 
123 133 
123 134 
123 135 
123 138 
123 150 
123 153 
123 161 
123 168 
123 174 
123 183 
123 190 
123 198 
123 208 
123 213 
123 222 
124 125 
124 126 
124 127 
124 128 
124 129 
124 130 
124 131 
124 132 
124 133 
124 134 
124 135 
124 138 
124 139 
124 154 
124 163 
124 167 
124 169 
124 184 
124 195 
124 199 
124 209 
124 211 
124 214 
125 126 
125 127 
125 128 
125 129 
125 130 
125 131 
125 132 
125 133 
125 134 
125 135 
125 140 
125 147 
125 151 
125 155 
125 170 
125 178 
125 185 
125 187 
125 200 
125 206 
125 212 
125 215 
126 127 
126 128 
126 129 
126 130 
126 131 
126 132 
126 133 
126 134 
126 135 
126 141 
126 145 
126 152 
126 156 
126 171 
126 177 
126 186 
126 194 
126 201 
126 204 
126 216 
126 225 
127 128 
127 129 
127 130 
127 131 
127 132 
127 133 
127 134 
127 135 
127 139 
127 142 
127 153 
127 157 
127 172 
127 180 
127 185 
127 187 
127 196 
127 202 
127 217 
127 218 
128 129 
128 130 
128 131 
128 132 
128 133 
128 134 
128 135 
128 140 
128 143 
128 158 
128 159 
128 173 
128 176 
128 182 
128 188 
128 201 
128 203 
128 218 
128 220 
129 130 
129 131 
129 132 
129 133 
129 134 
129 135 
129 144 
129 146 
129 159 
129 164 
129 174 
129 175 
129 189 
129 192 
129 204 
129 210 
129 219 
129 223 
130 131 
130 132 
130 133 
130 134 
130 135 
130 144 
130 145 
130 158 
130 160 
130 172 
130 175 
130 186 
130 190 
130 198 
130 205 
130 214 
130 220 
131 132 
131 133 
131 134 
131 135 
131 146 
131 148 
131 161 
131 162 
131 173 
131 176 
131 181 
131 191 
131 202 
131 206 
131 221 
131 224 
132 133 
132 134 
132 135 
132 143 
132 147 
132 162 
132 165 
132 168 
132 177 
132 189 
132 192 
132 200 
132 207 
132 216 
132 222 
133 134 
133 135 
133 148 
133 149 
133 154 
133 163 
133 166 
133 178 
133 191 
133 193 
133 203 
133 208 
133 217 
133 223 
134 135 
134 136 
134 149 
134 156 
134 164 
134 170 
134 179 
134 184 
134 194 
134 197 
134 209 
134 219 
134 224 
135 137 
135 150 
135 160 
135 165 
135 179 
135 180 
135 193 
135 195 
135 207 
135 210 
135 221 
135 225 
136 137 
136 138 
136 139 
136 140 
136 141 
136 142 
136 143 
136 144 
136 145 
136 146 
136 147 
136 148 
136 149 
136 150 
136 151 
136 156 
136 166 
136 170 
136 181 
136 184 
136 196 
136 197 
136 211 
136 219 
137 138 
137 139 
137 140 
137 141 
137 142 
137 143 
137 144 
137 145 
137 146 
137 147 
137 148 
137 149 
137 150 
137 152 
137 160 
137 167 
137 179 
137 182 
137 193 
137 197 
137 207 
137 212 
137 221 
138 139 
138 140 
138 141 
138 142 
138 143 
138 144 
138 145 
138 146 
138 147 
138 148 
138 149 
138 150 
138 153 
138 163 
138 167 
138 168 
138 183 
138 195 
138 198 
138 209 
138 211 
138 213 
139 140 
139 141 
139 142 
139 143 
139 144 
139 145 
139 146 
139 147 
139 148 
139 149 
139 150 
139 153 
139 154 
139 169 
139 180 
139 184 
139 185 
139 196 
139 199 
139 214 
139 218 
140 141 
140 142 
140 143 
140 144 
140 145 
140 146 
140 147 
140 148 
140 149 
140 150 
140 155 
140 159 
140 170 
140 176 
140 182 
140 185 
140 200 
140 201 
140 215 
140 220 
141 142 
141 143 
141 144 
141 145 
141 146 
141 147 
141 148 
141 149 
141 150 
141 156 
141 157 
141 169 
141 171 
141 183 
141 186 
141 201 
141 205 
141 215 
141 216 
142 143 
142 144 
142 145 
142 146 
142 147 
142 148 
142 149 
142 150 
142 155 
142 157 
142 171 
142 172 
142 187 
142 188 
142 199 
142 202 
142 213 
142 217 
143 144 
143 145 
143 146 
143 147 
143 148 
143 149 
143 150 
143 158 
143 165 
143 168 
143 173 
143 188 
143 189 
143 200 
143 203 
143 216 
143 218 
144 145 
144 146 
144 147 
144 148 
144 149 
144 150 
144 158 
144 159 
144 172 
144 174 
144 186 
144 189 
144 198 
144 204 
144 214 
144 219 
145 146 
145 147 
145 148 
145 149 
145 150 
145 152 
145 160 
145 175 
145 177 
145 190 
145 194 
145 204 
145 205 
145 220 
145 225 
146 147 
146 148 
146 149 
146 150 
146 161 
146 164 
146 175 
146 176 
146 191 
146 192 
146 206 
146 210 
146 221 
146 223 
147 148 
147 149 
147 150 
147 151 
147 162 
147 177 
147 178 
147 187 
147 192 
147 206 
147 207 
147 212 
147 222 
148 149 
148 150 
148 162 
148 163 
148 173 
148 178 
148 181 
148 193 
148 202 
148 208 
148 223 
148 224 
149 150 
149 154 
149 164 
149 166 
149 179 
149 191 
149 194 
149 203 
149 209 
149 217 
149 224 
150 161 
150 165 
150 174 
150 180 
150 190 
150 195 
150 208 
150 210 
150 222 
150 225 
151 152 
151 153 
151 154 
151 155 
151 156 
151 157 
151 158 
151 159 
151 160 
151 161 
151 162 
151 163 
151 164 
151 165 
151 166 
151 178 
151 181 
151 187 
151 196 
151 206 
151 211 
151 212 
152 153 
152 154 
152 155 
152 156 
152 157 
152 158 
152 159 
152 160 
152 161 
152 162 
152 163 
152 164 
152 165 
152 167 
152 177 
152 182 
152 194 
152 197 
152 204 
152 212 
152 225 
153 154 
153 155 
153 156 
153 157 
153 158 
153 159 
153 160 
153 161 
153 162 
153 163 
153 164 
153 165 
153 168 
153 180 
153 183 
153 185 
153 196 
153 198 
153 213 
153 218 
154 155 
154 156 
154 157 
154 158 
154 159 
154 160 
154 161 
154 162 
154 163 
154 164 
154 165 
154 166 
154 169 
154 184 
154 191 
154 199 
154 203 
154 214 
154 217 
155 156 
155 157 
155 158 
155 159 
155 160 
155 161 
155 162 
155 163 
155 164 
155 165 
155 170 
155 171 
155 185 
155 188 
155 199 
155 200 
155 213 
155 215 
156 157 
156 158 
156 159 
156 160 
156 161 
156 162 
156 163 
156 164 
156 165 
156 170 
156 171 
156 184 
156 186 
156 197 
156 201 
156 216 
156 219 
157 158 
157 159 
157 160 
157 161 
157 162 
157 163 
157 164 
157 165 
157 169 
157 172 
157 183 
157 187 
157 202 
157 205 
157 215 
157 217 
158 159 
158 160 
158 161 
158 162 
158 163 
158 164 
158 165 
158 172 
158 173 
158 186 
158 188 
158 198 
158 203 
158 214 
158 218 
159 160 
159 161 
159 162 
159 163 
159 164 
159 165 
159 174 
159 176 
159 182 
159 189 
159 201 
159 204 
159 219 
159 220 
160 161 
160 162 
160 163 
160 164 
160 165 
160 175 
160 179 
160 190 
160 193 
160 205 
160 207 
160 220 
160 221 
161 162 
161 163 
161 164 
161 165 
161 174 
161 176 
161 190 
161 191 
161 206 
161 208 
161 221 
161 222 
162 163 
162 164 
162 165 
162 173 
162 177 
162 181 
162 192 
162 202 
162 207 
162 222 
162 224 
163 164 
163 165 
163 167 
163 178 
163 193 
163 195 
163 208 
163 209 
163 211 
163 223 
164 165 
164 175 
164 179 
164 192 
164 194 
164 209 
164 210 
164 223 
164 224 
165 168 
165 180 
165 189 
165 195 
165 200 
165 210 
165 216 
165 225 
166 167 
166 168 
166 169 
166 170 
166 171 
166 172 
166 173 
166 174 
166 175 
166 176 
166 177 
166 178 
166 179 
166 180 
166 181 
166 191 
166 196 
166 203 
166 211 
166 217 
167 168 
167 169 
167 170 
167 171 
167 172 
167 173 
167 174 
167 175 
167 176 
167 177 
167 178 
167 179 
167 180 
167 182 
167 195 
167 197 
167 209 
167 211 
167 212 
168 169 
168 170 
168 171 
168 172 
168 173 
168 174 
168 175 
168 176 
168 177 
168 178 
168 179 
168 180 
168 183 
168 189 
168 198 
168 200 
168 213 
168 216 
169 170 
169 171 
169 172 
169 173 
169 174 
169 175 
169 176 
169 177 
169 178 
169 179 
169 180 
169 183 
169 184 
169 199 
169 205 
169 214 
169 215 
170 171 
170 172 
170 173 
170 174 
170 175 
170 176 
170 177 
170 178 
170 179 
170 180 
170 184 
170 185 
170 197 
170 200 
170 215 
170 219 
171 172 
171 173 
171 174 
171 175 
171 176 
171 177 
171 178 
171 179 
171 180 
171 186 
171 188 
171 199 
171 201 
171 213 
171 216 
172 173 
172 174 
172 175 
172 176 
172 177 
172 178 
172 179 
172 180 
172 186 
172 187 
172 198 
172 202 
172 214 
172 217 
173 174 
173 175 
173 176 
173 177 
173 178 
173 179 
173 180 
173 181 
173 188 
173 202 
173 203 
173 218 
173 224 
174 175 
174 176 
174 177 
174 178 
174 179 
174 180 
174 189 
174 190 
174 204 
174 208 
174 219 
174 222 
175 176 
175 177 
175 178 
175 179 
175 180 
175 190 
175 192 
175 205 
175 210 
175 220 
175 223 
176 177 
176 178 
176 179 
176 180 
176 182 
176 191 
176 201 
176 206 
176 220 
176 221 
177 178 
177 179 
177 180 
177 192 
177 194 
177 204 
177 207 
177 222 
177 225 
178 179 
178 180 
178 187 
178 193 
178 206 
178 208 
178 212 
178 223 
179 180 
179 193 
179 194 
179 207 
179 209 
179 221 
179 224 
180 185 
180 195 
180 196 
180 210 
180 218 
180 225 
181 182 
181 183 
181 184 
181 185 
181 186 
181 187 
181 188 
181 189 
181 190 
181 191 
181 192 
181 193 
181 194 
181 195 
181 196 
181 202 
181 211 
181 224 
182 183 
182 184 
182 185 
182 186 
182 187 
182 188 
182 189 
182 190 
182 191 
182 192 
182 193 
182 194 
182 195 
182 197 
182 201 
182 212 
182 220 
183 184 
183 185 
183 186 
183 187 
183 188 
183 189 
183 190 
183 191 
183 192 
183 193 
183 194 
183 195 
183 198 
183 205 
183 213 
183 215 
184 185 
184 186 
184 187 
184 188 
184 189 
184 190 
184 191 
184 192 
184 193 
184 194 
184 195 
184 197 
184 199 
184 214 
184 219 
185 186 
185 187 
185 188 
185 189 
185 190 
185 191 
185 192 
185 193 
185 194 
185 195 
185 196 
185 200 
185 215 
185 218 
186 187 
186 188 
186 189 
186 190 
186 191 
186 192 
186 193 
186 194 
186 195 
186 198 
186 201 
186 214 
186 216 
187 188 
187 189 
187 190 
187 191 
187 192 
187 193 
187 194 
187 195 
187 202 
187 206 
187 212 
187 217 
188 189 
188 190 
188 191 
188 192 
188 193 
188 194 
188 195 
188 199 
188 203 
188 213 
188 218 
189 190 
189 191 
189 192 
189 193 
189 194 
189 195 
189 200 
189 204 
189 216 
189 219 
190 191 
190 192 
190 193 
190 194 
190 195 
190 205 
190 208 
190 220 
190 222 
191 192 
191 193 
191 194 
191 195 
191 203 
191 206 
191 217 
191 221 
192 193 
192 194 
192 195 
192 207 
192 210 
192 222 
192 223 
193 194 
193 195 
193 207 
193 208 
193 221 
193 223 
194 195 
194 204 
194 209 
194 224 
194 225 
195 209 
195 210 
195 211 
195 225 
196 197 
196 198 
196 199 
196 200 
196 201 
196 202 
196 203 
196 204 
196 205 
196 206 
196 207 
196 208 
196 209 
196 210 
196 211 
196 218 
197 198 
197 199 
197 200 
197 201 
197 202 
197 203 
197 204 
197 205 
197 206 
197 207 
197 208 
197 209 
197 210 
197 212 
197 219 
198 199 
198 200 
198 201 
198 202 
198 203 
198 204 
198 205 
198 206 
198 207 
198 208 
198 209 
198 210 
198 213 
198 214 
199 200 
199 201 
199 202 
199 203 
199 204 
199 205 
199 206 
199 207 
199 208 
199 209 
199 210 
199 213 
199 214 
200 201 
200 202 
200 203 
200 204 
200 205 
200 206 
200 207 
200 208 
200 209 
200 210 
200 215 
200 216 
201 202 
201 203 
201 204 
201 205 
201 206 
201 207 
201 208 
201 209 
201 210 
201 216 
201 220 
202 203 
202 204 
202 205 
202 206 
202 207 
202 208 
202 209 
202 210 
202 217 
202 224 
203 204 
203 205 
203 206 
203 207 
203 208 
203 209 
203 210 
203 217 
203 218 
204 205 
204 206 
204 207 
204 208 
204 209 
204 210 
204 219 
204 225 
205 206 
205 207 
205 208 
205 209 
205 210 
205 215 
205 220 
206 207 
206 208 
206 209 
206 210 
206 212 
206 221 
207 208 
207 209 
207 210 
207 221 
207 222 
208 209 
208 210 
208 222 
208 223 
209 210 
209 211 
209 224 
210 223 
210 225 
211 212 
211 213 
211 214 
211 215 
211 216 
211 217 
211 218 
211 219 
211 220 
211 221 
211 222 
211 223 
211 224 
211 225 
212 213 
212 214 
212 215 
212 216 
212 217 
212 218 
212 219 
212 220 
212 221 
212 222 
212 223 
212 224 
212 225 
213 214 
213 215 
213 216 
213 217 
213 218 
213 219 
213 220 
213 221 
213 222 
213 223 
213 224 
213 225 
214 215 
214 216 
214 217 
214 218 
214 219 
214 220 
214 221 
214 222 
214 223 
214 224 
214 225 
215 216 
215 217 
215 218 
215 219 
215 220 
215 221 
215 222 
215 223 
215 224 
215 225 
216 217 
216 218 
216 219 
216 220 
216 221 
216 222 
216 223 
216 224 
216 225 
217 218 
217 219 
217 220 
217 221 
217 222 
217 223 
217 224 
217 225 
218 219 
218 220 
218 221 
218 222 
218 223 
218 224 
218 225 
219 220 
219 221 
219 222 
219 223 
219 224 
219 225 
220 221 
220 222 
220 223 
220 224 
220 225 
221 222 
221 223 
221 224 
221 225 
222 223 
222 224 
222 225 
223 224 
223 225 
224 225 
